certificates/rado_a13_c88_N35.cnf
c Rad2 upper bound instance: x1 + 13*x2 - x3 = 88, interval [1,35]
p cnf 35 188
1 4 7 0
-1 -4 -7 0
1 8 17 0
-1 -8 -17 0
1 9 30 0
-1 -9 -30 0
2 5 7 0
-2 -5 -7 0
2 8 18 0
-2 -8 -18 0
2 9 31 0
-2 -9 -31 0
3 6 7 0
-3 -6 -7 0
3 8 19 0
-3 -8 -19 0
3 9 32 0
-3 -9 -32 0
4 7 0
-4 -7 0
4 8 20 0
-4 -8 -20 0
4 9 33 0
-4 -9 -33 0
5 7 8 0
-5 -7 -8 0
5 8 21 0
-5 -8 -21 0
5 9 34 0
-5 -9 -34 0
6 7 9 0
-6 -7 -9 0
6 8 22 0
-6 -8 -22 0
6 9 35 0
-6 -9 -35 0
7 10 0
-7 -10 0
7 8 23 0
-7 -8 -23 0
7 8 11 0
-7 -8 -11 0
8 24 0
-8 -24 0
7 9 12 0
-7 -9 -12 0
8 9 25 0
-8 -9 -25 0
7 10 13 0
-7 -10 -13 0
8 10 26 0
-8 -10 -26 0
1 6 11 0
-1 -6 -11 0
7 11 14 0
-7 -11 -14 0
8 11 27 0
-8 -11 -27 0
2 6 12 0
-2 -6 -12 0
7 12 15 0
-7 -12 -15 0
8 12 28 0
-8 -12 -28 0
3 6 13 0
-3 -6 -13 0
7 13 16 0
-7 -13 -16 0
8 13 29 0
-8 -13 -29 0
4 6 14 0
-4 -6 -14 0
7 14 17 0
-7 -14 -17 0
8 14 30 0
-8 -14 -30 0
5 6 15 0
-5 -6 -15 0
7 15 18 0
-7 -15 -18 0
8 15 31 0
-8 -15 -31 0
6 16 0
-6 -16 0
7 16 19 0
-7 -16 -19 0
8 16 32 0
-8 -16 -32 0
6 7 17 0
-6 -7 -17 0
7 17 20 0
-7 -17 -20 0
8 17 33 0
-8 -17 -33 0
6 8 18 0
-6 -8 -18 0
7 18 21 0
-7 -18 -21 0
8 18 34 0
-8 -18 -34 0
6 9 19 0
-6 -9 -19 0
7 19 22 0
-7 -19 -22 0
8 19 35 0
-8 -19 -35 0
6 10 20 0
-6 -10 -20 0
7 20 23 0
-7 -20 -23 0
6 11 21 0
-6 -11 -21 0
7 21 24 0
-7 -21 -24 0
6 12 22 0
-6 -12 -22 0
7 22 25 0
-7 -22 -25 0
6 13 23 0
-6 -13 -23 0
7 23 26 0
-7 -23 -26 0
1 5 24 0
-1 -5 -24 0
6 14 24 0
-6 -14 -24 0
7 24 27 0
-7 -24 -27 0
2 5 25 0
-2 -5 -25 0
6 15 25 0
-6 -15 -25 0
7 25 28 0
-7 -25 -28 0
3 5 26 0
-3 -5 -26 0
6 16 26 0
-6 -16 -26 0
7 26 29 0
-7 -26 -29 0
4 5 27 0
-4 -5 -27 0
6 17 27 0
-6 -17 -27 0
7 27 30 0
-7 -27 -30 0
5 28 0
-5 -28 0
6 18 28 0
-6 -18 -28 0
7 28 31 0
-7 -28 -31 0
5 6 29 0
-5 -6 -29 0
6 19 29 0
-6 -19 -29 0
7 29 32 0
-7 -29 -32 0
5 7 30 0
-5 -7 -30 0
6 20 30 0
-6 -20 -30 0
7 30 33 0
-7 -30 -33 0
5 8 31 0
-5 -8 -31 0
6 21 31 0
-6 -21 -31 0
7 31 34 0
-7 -31 -34 0
5 9 32 0
-5 -9 -32 0
6 22 32 0
-6 -22 -32 0
7 32 35 0
-7 -32 -35 0
5 10 33 0
-5 -10 -33 0
6 23 33 0
-6 -23 -33 0
5 11 34 0
-5 -11 -34 0
6 24 34 0
-6 -24 -34 0
5 12 35 0
-5 -12 -35 0
6 25 35 0
-6 -25 -35 0
