certificates/rado_a13_c88_N35.drat
7 -33 0
5 31 -7 -35 0
-7 -34 -35 0
9 7 -35 0
-34 -35 0
d -7 -34 -35 0
7 -9 -35 0
-9 -35 0
d 7 -9 -35 0
-35 0
-5 -1 -7 0
-7 9 0
9 0
7 0
-4 0
-10 0
-12 0
-6 0
14 0
20 0
22 0
5 0
16 0
25 0
2 0
-17 0
-11 0
-23 0
0
